
Gurobi 11.0.0 (win64) logging started Sat Jun 15 09:47:17 2024

Set parameter LogFile to value "./GurobiLog/stage_1_iter_6.log"
Gurobi Optimizer version 11.0.0 build v11.0.0rc2 (win64 - Windows 10.0 (18363.2))

CPU model: Intel(R) Core(TM) i7-8700 CPU @ 3.20GHz, instruction set [SSE2|AVX|AVX2]
Thread count: 6 physical cores, 12 logical processors, using up to 1 threads

Optimize a model with 1487 rows, 20456 columns and 47366 nonzeros
Coefficient statistics:
  Matrix range     [8e-03, 7e+03]
  Objective range  [1e-01, 2e+05]
  Bounds range     [1e+01, 1e+06]
  RHS range        [1e+00, 4e+04]
LP warm-start: use basis
Iteration    Objective       Primal Inf.    Dual Inf.      Time
       0    3.1259394e+04   1.156719e+04   0.000000e+00      0s
      22    3.5546591e+04   0.000000e+00   0.000000e+00      0s

Solved in 22 iterations and 0.01 seconds (0.00 work units)
Optimal objective  3.554659067e+04

Gurobi 11.0.0 (win64) logging started Sat Jun 15 10:45:57 2024

Set parameter LogFile to value "./GurobiLog/stage_1_iter_6.log"
Gurobi Optimizer version 11.0.0 build v11.0.0rc2 (win64 - Windows 10.0 (18363.2))

CPU model: Intel(R) Core(TM) i7-8700 CPU @ 3.20GHz, instruction set [SSE2|AVX|AVX2]
Thread count: 6 physical cores, 12 logical processors, using up to 1 threads

Optimize a model with 1487 rows, 20456 columns and 48803 nonzeros
Coefficient statistics:
  Matrix range     [1e-02, 7e+03]
  Objective range  [1e-01, 2e+05]
  Bounds range     [6e+00, 4e+05]
  RHS range        [1e+00, 4e+04]
LP warm-start: use basis
Iteration    Objective       Primal Inf.    Dual Inf.      Time
       0    4.4394661e+04   1.651291e+04   0.000000e+00      0s
     136    5.0029449e+04   0.000000e+00   0.000000e+00      0s

Solved in 136 iterations and 0.01 seconds (0.01 work units)
Optimal objective  5.002944934e+04

Gurobi 11.0.0 (win64) logging started Sat Jun 15 11:04:47 2024

Set parameter LogFile to value "./GurobiLog/stage_1_iter_6.log"
Gurobi Optimizer version 11.0.0 build v11.0.0rc2 (win64 - Windows 10.0 (18363.2))

CPU model: Intel(R) Core(TM) i7-8700 CPU @ 3.20GHz, instruction set [SSE2|AVX|AVX2]
Thread count: 6 physical cores, 12 logical processors, using up to 1 threads

Optimize a model with 1487 rows, 20456 columns and 47821 nonzeros
Coefficient statistics:
  Matrix range     [1e-03, 7e+03]
  Objective range  [1e-01, 2e+05]
  Bounds range     [6e-01, 1e+06]
  RHS range        [1e+00, 4e+04]
LP warm-start: use basis
Iteration    Objective       Primal Inf.    Dual Inf.      Time
       0    4.1678850e+04   1.924950e+03   0.000000e+00      0s
      69    4.2975050e+04   0.000000e+00   0.000000e+00      0s

Solved in 69 iterations and 0.01 seconds (0.01 work units)
Optimal objective  4.297504975e+04

Gurobi 11.0.0 (win64) logging started Tue Jul  2 10:39:10 2024

Set parameter LogFile to value "./GurobiLog/stage_1_iter_6.log"
Gurobi Optimizer version 11.0.0 build v11.0.0rc2 (win64 - Windows 10.0 (18363.2))

CPU model: Intel(R) Core(TM) i7-8700 CPU @ 3.20GHz, instruction set [SSE2|AVX|AVX2]
Thread count: 6 physical cores, 12 logical processors, using up to 1 threads

Optimize a model with 1983 rows, 27656 columns and 212519 nonzeros
Coefficient statistics:
  Matrix range     [1e-13, 2e+05]
  Objective range  [1e-03, 2e+05]
  Bounds range     [5e+00, 1e+08]
  RHS range        [1e+00, 5e+07]
Warning: Model contains large matrix coefficient range
         Consider reformulating model or setting NumericFocus parameter
         to avoid numerical issues.
LP warm-start: use basis
Iteration    Objective       Primal Inf.    Dual Inf.      Time
       0    3.5027830e+06   7.704657e+04   0.000000e+00      0s
     198    3.5367079e+06   0.000000e+00   0.000000e+00      0s

Solved in 198 iterations and 0.05 seconds (0.08 work units)
Optimal objective  3.536707894e+06
